begin projections
C:pz
end projections

spinors = False
write_hr = True
write_xyz = True

num_bands       = 80

guiding_centres = True
write_u_matrices = True

num_wann        = 2
num_iter        = 400

fermi_energy  = -1.8735
dis_froz_max  = -0.97
dis_froz_min  = -7.29
dis_num_iter  = 2000
dis_mix_ratio = 0.5

begin unit_cell_cart
   2.135685378  -1.233038527   0.000000000
   2.135685378   1.233038527   0.000000000
   0.000000000   0.000000000  30.000000000
end unit_cell_cart

begin atoms_cart
ang
C                0.0000000000        0.0000000000        0.0000000000
C                1.4237902511        0.0000000000        0.0000000000
end atoms_cart

mp_grid = 6 6 1

begin kpoints
  0.00000000  0.00000000  0.00000000
  0.00000000  0.16666667  0.00000000
  0.00000000  0.33333333  0.00000000
  0.00000000  0.50000000  0.00000000
  0.00000000  0.66666667  0.00000000
  0.00000000  0.83333333  0.00000000
  0.16666667  0.00000000  0.00000000
  0.16666667  0.16666667  0.00000000
  0.16666667  0.33333333  0.00000000
  0.16666667  0.50000000  0.00000000
  0.16666667  0.66666667  0.00000000
  0.16666667  0.83333333  0.00000000
  0.33333333  0.00000000  0.00000000
  0.33333333  0.16666667  0.00000000
  0.33333333  0.33333333  0.00000000
  0.33333333  0.50000000  0.00000000
  0.33333333  0.66666667  0.00000000
  0.33333333  0.83333333  0.00000000
  0.50000000  0.00000000  0.00000000
  0.50000000  0.16666667  0.00000000
  0.50000000  0.33333333  0.00000000
  0.50000000  0.50000000  0.00000000
  0.50000000  0.66666667  0.00000000
  0.50000000  0.83333333  0.00000000
  0.66666667  0.00000000  0.00000000
  0.66666667  0.16666667  0.00000000
  0.66666667  0.33333333  0.00000000
  0.66666667  0.50000000  0.00000000
  0.66666667  0.66666667  0.00000000
  0.66666667  0.83333333  0.00000000
  0.83333333  0.00000000  0.00000000
  0.83333333  0.16666667  0.00000000
  0.83333333  0.33333333  0.00000000
  0.83333333  0.50000000  0.00000000
  0.83333333  0.66666667  0.00000000
  0.83333333  0.83333333  0.00000000
end kpoints
